(declare-fun ExpandObjSwitcher () Real)
(declare-fun Constructed_Argument_t () String)
(declare-fun Constructed_Argument_2_t () String)
(declare-fun CreateAsClass () Bool)
(declare-fun Constructed_Argument_2_elements_decoder_0_t () String)
(declare-fun Constructed_Argument_2_elements_decoder_1_t () String)
(declare-fun Constructed_Argument_2_elements_charset_2_t () String)
(declare-fun Constructed_Argument_2_elements_charset_3_t () String)
(declare-fun Constructed_Argument_2_elements_allowDots_4_t () String)
(declare-fun Constructed_Argument_2_elements_allowPrototypes_5_t () String)
(declare-fun Constructed_Argument_2_elements_arrayLimit_6_t () String)
(assert (= ExpandObjSwitcher 0.0))
(assert (not (= Constructed_Argument_t "string")))
(assert (not (= Constructed_Argument_t "number")))
(assert (not (= Constructed_Argument_t "boolean")))
(assert (not (= Constructed_Argument_t "object")))
(assert (not (= Constructed_Argument_t "array_number")))
(assert (not (= Constructed_Argument_t "array_string")))
(assert (not (= Constructed_Argument_t "array_bool")))
(assert (not (= Constructed_Argument_t "null")))
(assert (= Constructed_Argument_2_t "object"))
(assert (not CreateAsClass))
(assert (not (= Constructed_Argument_2_elements_decoder_0_t "string")))
(assert (not (= Constructed_Argument_2_elements_decoder_0_t "number")))
(assert (not (= Constructed_Argument_2_elements_decoder_0_t "boolean")))
(assert (not (= Constructed_Argument_2_elements_decoder_0_t "object")))
(assert (not (= Constructed_Argument_2_elements_decoder_0_t "array_number")))
(assert (not (= Constructed_Argument_2_elements_decoder_0_t "array_string")))
(assert (not (= Constructed_Argument_2_elements_decoder_0_t "array_bool")))
(assert (not (= Constructed_Argument_2_elements_decoder_0_t "null")))
(assert (not (= Constructed_Argument_2_elements_decoder_1_t "string")))
(assert (not (= Constructed_Argument_2_elements_decoder_1_t "number")))
(assert (not (= Constructed_Argument_2_elements_decoder_1_t "boolean")))
(assert (not (= Constructed_Argument_2_elements_decoder_1_t "object")))
(assert (not (= Constructed_Argument_2_elements_decoder_1_t "array_number")))
(assert (not (= Constructed_Argument_2_elements_decoder_1_t "array_string")))
(assert (not (= Constructed_Argument_2_elements_decoder_1_t "array_bool")))
(assert (not (= Constructed_Argument_2_elements_decoder_1_t "null")))
(assert (not (= Constructed_Argument_2_elements_charset_2_t "string")))
(assert (not (= Constructed_Argument_2_elements_charset_2_t "number")))
(assert (not (= Constructed_Argument_2_elements_charset_2_t "boolean")))
(assert (not (= Constructed_Argument_2_elements_charset_2_t "object")))
(assert (not (= Constructed_Argument_2_elements_charset_2_t "array_number")))
(assert (not (= Constructed_Argument_2_elements_charset_2_t "array_string")))
(assert (not (= Constructed_Argument_2_elements_charset_2_t "array_bool")))
(assert (not (= Constructed_Argument_2_elements_charset_2_t "null")))
(assert (not (= Constructed_Argument_2_elements_charset_3_t "string")))
(assert (not (= Constructed_Argument_2_elements_charset_3_t "number")))
(assert (not (= Constructed_Argument_2_elements_charset_3_t "boolean")))
(assert (not (= Constructed_Argument_2_elements_charset_3_t "object")))
(assert (not (= Constructed_Argument_2_elements_charset_3_t "array_number")))
(assert (not (= Constructed_Argument_2_elements_charset_3_t "array_string")))
(assert (not (= Constructed_Argument_2_elements_charset_3_t "array_bool")))
(assert (not (= Constructed_Argument_2_elements_charset_3_t "null")))
(assert (not (= Constructed_Argument_2_elements_allowDots_4_t "string")))
(assert (not (= Constructed_Argument_2_elements_allowDots_4_t "number")))
(assert (not (= Constructed_Argument_2_elements_allowDots_4_t "boolean")))
(assert (not (= Constructed_Argument_2_elements_allowDots_4_t "object")))
(assert (not (= Constructed_Argument_2_elements_allowDots_4_t "array_number")))
(assert (not (= Constructed_Argument_2_elements_allowDots_4_t "array_string")))
(assert (not (= Constructed_Argument_2_elements_allowDots_4_t "array_bool")))
(assert (not (= Constructed_Argument_2_elements_allowDots_4_t "null")))
(assert (= Constructed_Argument_2_elements_allowPrototypes_5_t "object"))
(assert (not (= Constructed_Argument_2_elements_arrayLimit_6_t "string")))
(assert (not (= Constructed_Argument_2_elements_arrayLimit_6_t "number")))
(assert (not (= Constructed_Argument_2_elements_arrayLimit_6_t "boolean")))
(assert (not (= Constructed_Argument_2_elements_arrayLimit_6_t "object")))
(assert (not (= Constructed_Argument_2_elements_arrayLimit_6_t "array_number")))
(assert (not (= Constructed_Argument_2_elements_arrayLimit_6_t "array_string")))
(assert (= Constructed_Argument_2_elements_arrayLimit_6_t "array_bool"))
(check-sat)
